Maximize
  - 2.3708897154932 edge_0_2_0_0 - 3.9065872093955 edge_0_3_0_0
   - 2.9656729416816 edge_0_5_0_0 - 4.1211744704247 edge_0_7_0_0
   - 3.03257 edge_0_8_0_0 - 3.68036020891 edge_0_9_0_0
   - 3.2033793899331 edge_0_12_0_0 - 3.2837735482121 edge_0_14_0_0
   - 2.1147410365615 edge_0_16_0_0 + 2.769402605852347 edge_2_3_0_0
   + 2.273974315050649 edge_2_5_0_0 + 2.327572085874316 edge_2_7_0_0
   + 2.3735397151752 edge_2_8_0_0 + 1.917454839568392 edge_2_9_0_0
   + 0.4278037527449934 edge_2_10_0_0 + 0.3399800697854267 edge_2_11_0_0
   + 0.5368785371016578 edge_2_12_0_0 + 0.6813935044337996 edge_2_14_0_0
   + 0.4264257588867528 edge_2_16_0_0 + 1.662936524455793 edge_2_17_0_0
   - 0.5738788130495741 edge_3_2_0_0 + 0.2919229972791929 edge_3_5_0_0
   - 0.2337566144146856 edge_3_7_0_0 - 0.13582924512129 edge_3_8_0_0
   + 0.4748488128751356 edge_5_2_0_0 + 0.9116274396960896 edge_5_3_0_0
   + 1.551862437527008 edge_5_7_0_0 + 1.6501160727144 edge_5_8_0_0
   + 0.9968166805780538 edge_5_9_0_0 - 0.1821837985153976 edge_5_10_0_0
   - 0.3062257679097378 edge_5_11_0_0 - 0.0940722229720715 edge_5_12_0_0
   - 0.1471859122898251 edge_5_14_0_0 - 0.00910446350741528 edge_5_16_0_0
   + 0.714906890144852 edge_5_17_0_0 - 1.147019433604551 edge_7_2_0_0
   - 0.8592599138731668 edge_7_3_0_0 - 0.3631985290780935 edge_7_5_0_0
   + 0.038057466874401 edge_7_8_0_0 + 0.1401328988874215 edge_7_9_0_0
   - 0.4877018749263225 edge_7_10_0_0 - 0.6717587906936581 edge_7_11_0_0
   - 0.7961932561832701 edge_7_12_0_0 - 1.088614516641747 edge_7_14_0_0
   - 0.3088500128607661 edge_7_17_0_0 - 1.1716398594032 edge_8_2_0_0
   - 0.96424993584346 edge_8_3_0_0 - 0.4740698717110201 edge_8_5_0_0
   + 0.52564460721669 edge_8_7_0_0 + 1.1013382431385 edge_8_9_0_0
   + 0.10240432000881 edge_8_10_0_0 - 0.054395277710904 edge_8_11_0_0
   + 0.07477496274378 edge_8_12_0_0 - 0.10792245930577 edge_8_14_0_0
   + 0.1112483056852 edge_8_16_0_0 + 1.1137378059322 edge_8_17_0_0
   - 1.9441230988177 edge_9_2_0_0 - 1.41396422955765 edge_9_3_0_0
   - 1.466730945197542 edge_9_5_0_0 - 0.9382547693281753 edge_9_7_0_0
   - 0.60510357493355 edge_9_8_0_0 - 0.0480980073708454 edge_9_10_0_0
   - 0.3401899431101285 edge_9_11_0_0 - 0.5395479010409048 edge_9_12_0_0
   - 0.8543120575393484 edge_9_14_0_0 - 0.4516085372386614 edge_9_16_0_0
   - 0.0950376206589185 edge_9_17_0_0 - 1.104010974791867 edge_10_2_0_0
   - 0.9732825153115359 edge_10_3_0_0 - 0.8382630669583624 edge_10_5_0_0
   - 0.4024164946638249 edge_10_7_0_0 - 0.46637479465221 edge_10_8_0_0
   + 0.1945692306469261 edge_10_9_0_0 + 1.221684051100467 edge_10_11_0_0
   + 0.9418121362669691 edge_10_12_0_0 + 0.0883639447378799 edge_10_14_0_0
   + 0.2537003164566623 edge_10_16_0_0 - 0.146654873023301 edge_10_17_0_0
   - 0.365593997283524 edge_11_9_0_0 + 0.6004134177818014 edge_11_10_0_0
   + 0.9816290006508719 edge_11_12_0_0 + 0.3186533357272855 edge_11_16_0_0
   - 0.2882521344935364 edge_11_17_0_0 - 0.8232531472607404 edge_12_2_0_0
   - 1.15258445491142 edge_12_3_0_0 - 0.5873071294853651 edge_12_5_0_0
   - 0.8302109770909122 edge_12_7_0_0 - 0.4678962051041 edge_12_8_0_0
   - 0.0251698018783849 edge_12_9_0_0 + 1.747578364102518 edge_12_10_0_0
   + 2.82005431338878 edge_12_11_0_0 + 0.4998098194991789 edge_12_14_0_0
   + 0.4574203989816719 edge_12_16_0_0 + 1.032617340273132 edge_12_17_0_0
   - 0.3634461355119785 edge_14_2_0_0 - 0.4168461930996497 edge_14_3_0_0
   + 0.00614791456664891 edge_14_5_0_0 - 0.7183814281474035 edge_14_7_0_0
   - 0.38680706208691 edge_14_8_0_0 + 0.3657133398711377 edge_14_9_0_0
   + 0.7009691431925281 edge_14_10_0_0 + 0.6145058912470206 edge_14_11_0_0
   + 2.026456173262007 edge_14_12_0_0 + 1.59452315710646 edge_14_16_0_0
   + 1.710798058563085 edge_14_17_0_0 - 0.5054554743079858 edge_16_2_0_0
   - 0.5802461036460062 edge_16_3_0_0 - 0.3695826483889533 edge_16_5_0_0
   - 0.6634328113807317 edge_16_7_0_0 - 0.33880046564905 edge_16_8_0_0
   - 0.027832501682412 edge_16_9_0_0 + 0.5759101752537803 edge_16_10_0_0
   + 0.9672335079490824 edge_16_11_0_0 + 1.529193549321604 edge_16_12_0_0
   + 0.7637132186181054 edge_16_14_0_0 + 0.6441766952659103 edge_16_17_0_0
   - 1.86165761157658 edge_17_10_0_0 - 1.521259381550414 edge_17_14_0_0
   - 1.232107165571102 edge_17_16_0_0
Subject To
 one_parent_1: = 1
 consume_one_flow_unit_1: = 1
 one_parent_2: edge_0_2_0_0 + edge_3_2_0_0 + edge_5_2_0_0 + edge_7_2_0_0
   + edge_8_2_0_0 + edge_9_2_0_0 + edge_10_2_0_0 + edge_12_2_0_0
   + edge_14_2_0_0 + edge_16_2_0_0 = 1
 consume_one_flow_unit_2: flow_0_2_0_0 - flow_2_3_0_0 - flow_2_5_0_0
   - flow_2_7_0_0 - flow_2_8_0_0 - flow_2_9_0_0 - flow_2_10_0_0
   - flow_2_11_0_0 - flow_2_12_0_0 - flow_2_14_0_0 - flow_2_16_0_0
   - flow_2_17_0_0 + flow_3_2_0_0 + flow_5_2_0_0 + flow_7_2_0_0
   + flow_8_2_0_0 + flow_9_2_0_0 + flow_10_2_0_0 + flow_12_2_0_0
   + flow_14_2_0_0 + flow_16_2_0_0 = 1
 one_parent_3: edge_0_3_0_0 + edge_2_3_0_0 + edge_5_3_0_0 + edge_7_3_0_0
   + edge_8_3_0_0 + edge_9_3_0_0 + edge_10_3_0_0 + edge_12_3_0_0
   + edge_14_3_0_0 + edge_16_3_0_0 = 1
 consume_one_flow_unit_3: flow_0_3_0_0 + flow_2_3_0_0 - flow_3_2_0_0
   - flow_3_5_0_0 - flow_3_7_0_0 - flow_3_8_0_0 + flow_5_3_0_0
   + flow_7_3_0_0 + flow_8_3_0_0 + flow_9_3_0_0 + flow_10_3_0_0
   + flow_12_3_0_0 + flow_14_3_0_0 + flow_16_3_0_0 = 1
 one_parent_4: = 1
 consume_one_flow_unit_4: = 1
 one_parent_5: edge_0_5_0_0 + edge_2_5_0_0 + edge_3_5_0_0 + edge_7_5_0_0
   + edge_8_5_0_0 + edge_9_5_0_0 + edge_10_5_0_0 + edge_12_5_0_0
   + edge_14_5_0_0 + edge_16_5_0_0 = 1
 consume_one_flow_unit_5: flow_0_5_0_0 + flow_2_5_0_0 + flow_3_5_0_0
   - flow_5_2_0_0 - flow_5_3_0_0 - flow_5_7_0_0 - flow_5_8_0_0
   - flow_5_9_0_0 - flow_5_10_0_0 - flow_5_11_0_0 - flow_5_12_0_0
   - flow_5_14_0_0 - flow_5_16_0_0 - flow_5_17_0_0 + flow_7_5_0_0
   + flow_8_5_0_0 + flow_9_5_0_0 + flow_10_5_0_0 + flow_12_5_0_0
   + flow_14_5_0_0 + flow_16_5_0_0 = 1
 one_parent_6: = 1
 consume_one_flow_unit_6: = 1
 one_parent_7: edge_0_7_0_0 + edge_2_7_0_0 + edge_3_7_0_0 + edge_5_7_0_0
   + edge_8_7_0_0 + edge_9_7_0_0 + edge_10_7_0_0 + edge_12_7_0_0
   + edge_14_7_0_0 + edge_16_7_0_0 = 1
 consume_one_flow_unit_7: flow_0_7_0_0 + flow_2_7_0_0 + flow_3_7_0_0
   + flow_5_7_0_0 - flow_7_2_0_0 - flow_7_3_0_0 - flow_7_5_0_0
   - flow_7_8_0_0 - flow_7_9_0_0 - flow_7_10_0_0 - flow_7_11_0_0
   - flow_7_12_0_0 - flow_7_14_0_0 - flow_7_17_0_0 + flow_8_7_0_0
   + flow_9_7_0_0 + flow_10_7_0_0 + flow_12_7_0_0 + flow_14_7_0_0
   + flow_16_7_0_0 = 1
 one_parent_8: edge_0_8_0_0 + edge_2_8_0_0 + edge_3_8_0_0 + edge_5_8_0_0
   + edge_7_8_0_0 + edge_9_8_0_0 + edge_10_8_0_0 + edge_12_8_0_0
   + edge_14_8_0_0 + edge_16_8_0_0 = 1
 consume_one_flow_unit_8: flow_0_8_0_0 + flow_2_8_0_0 + flow_3_8_0_0
   + flow_5_8_0_0 + flow_7_8_0_0 - flow_8_2_0_0 - flow_8_3_0_0
   - flow_8_5_0_0 - flow_8_7_0_0 - flow_8_9_0_0 - flow_8_10_0_0
   - flow_8_11_0_0 - flow_8_12_0_0 - flow_8_14_0_0 - flow_8_16_0_0
   - flow_8_17_0_0 + flow_9_8_0_0 + flow_10_8_0_0 + flow_12_8_0_0
   + flow_14_8_0_0 + flow_16_8_0_0 = 1
 one_parent_9: edge_0_9_0_0 + edge_2_9_0_0 + edge_5_9_0_0 + edge_7_9_0_0
   + edge_8_9_0_0 + edge_10_9_0_0 + edge_11_9_0_0 + edge_12_9_0_0
   + edge_14_9_0_0 + edge_16_9_0_0 = 1
 consume_one_flow_unit_9: flow_0_9_0_0 + flow_2_9_0_0 + flow_5_9_0_0
   + flow_7_9_0_0 + flow_8_9_0_0 - flow_9_2_0_0 - flow_9_3_0_0
   - flow_9_5_0_0 - flow_9_7_0_0 - flow_9_8_0_0 - flow_9_10_0_0
   - flow_9_11_0_0 - flow_9_12_0_0 - flow_9_14_0_0 - flow_9_16_0_0
   - flow_9_17_0_0 + flow_10_9_0_0 + flow_11_9_0_0 + flow_12_9_0_0
   + flow_14_9_0_0 + flow_16_9_0_0 = 1
 one_parent_10: edge_2_10_0_0 + edge_5_10_0_0 + edge_7_10_0_0
   + edge_8_10_0_0 + edge_9_10_0_0 + edge_11_10_0_0 + edge_12_10_0_0
   + edge_14_10_0_0 + edge_16_10_0_0 + edge_17_10_0_0 = 1
 consume_one_flow_unit_10: flow_2_10_0_0 + flow_5_10_0_0 + flow_7_10_0_0
   + flow_8_10_0_0 + flow_9_10_0_0 - flow_10_2_0_0 - flow_10_3_0_0
   - flow_10_5_0_0 - flow_10_7_0_0 - flow_10_8_0_0 - flow_10_9_0_0
   - flow_10_11_0_0 - flow_10_12_0_0 - flow_10_14_0_0 - flow_10_16_0_0
   - flow_10_17_0_0 + flow_11_10_0_0 + flow_12_10_0_0 + flow_14_10_0_0
   + flow_16_10_0_0 + flow_17_10_0_0 = 1
 one_parent_11: edge_2_11_0_0 + edge_5_11_0_0 + edge_7_11_0_0
   + edge_8_11_0_0 + edge_9_11_0_0 + edge_10_11_0_0 + edge_12_11_0_0
   + edge_14_11_0_0 + edge_16_11_0_0 = 1
 consume_one_flow_unit_11: flow_2_11_0_0 + flow_5_11_0_0 + flow_7_11_0_0
   + flow_8_11_0_0 + flow_9_11_0_0 + flow_10_11_0_0 - flow_11_9_0_0
   - flow_11_10_0_0 - flow_11_12_0_0 - flow_11_16_0_0 - flow_11_17_0_0
   + flow_12_11_0_0 + flow_14_11_0_0 + flow_16_11_0_0 = 1
 one_parent_12: edge_0_12_0_0 + edge_2_12_0_0 + edge_5_12_0_0
   + edge_7_12_0_0 + edge_8_12_0_0 + edge_9_12_0_0 + edge_10_12_0_0
   + edge_11_12_0_0 + edge_14_12_0_0 + edge_16_12_0_0 = 1
 consume_one_flow_unit_12: flow_0_12_0_0 + flow_2_12_0_0 + flow_5_12_0_0
   + flow_7_12_0_0 + flow_8_12_0_0 + flow_9_12_0_0 + flow_10_12_0_0
   + flow_11_12_0_0 - flow_12_2_0_0 - flow_12_3_0_0 - flow_12_5_0_0
   - flow_12_7_0_0 - flow_12_8_0_0 - flow_12_9_0_0 - flow_12_10_0_0
   - flow_12_11_0_0 - flow_12_14_0_0 - flow_12_16_0_0 - flow_12_17_0_0
   + flow_14_12_0_0 + flow_16_12_0_0 = 1
 one_parent_13: = 1
 consume_one_flow_unit_13: = 1
 one_parent_14: edge_0_14_0_0 + edge_2_14_0_0 + edge_5_14_0_0
   + edge_7_14_0_0 + edge_8_14_0_0 + edge_9_14_0_0 + edge_10_14_0_0
   + edge_12_14_0_0 + edge_16_14_0_0 + edge_17_14_0_0 = 1
 consume_one_flow_unit_14: flow_0_14_0_0 + flow_2_14_0_0 + flow_5_14_0_0
   + flow_7_14_0_0 + flow_8_14_0_0 + flow_9_14_0_0 + flow_10_14_0_0
   + flow_12_14_0_0 - flow_14_2_0_0 - flow_14_3_0_0 - flow_14_5_0_0
   - flow_14_7_0_0 - flow_14_8_0_0 - flow_14_9_0_0 - flow_14_10_0_0
   - flow_14_11_0_0 - flow_14_12_0_0 - flow_14_16_0_0 - flow_14_17_0_0
   + flow_16_14_0_0 + flow_17_14_0_0 = 1
 one_parent_15: = 1
 consume_one_flow_unit_15: = 1
 one_parent_16: edge_0_16_0_0 + edge_2_16_0_0 + edge_5_16_0_0
   + edge_8_16_0_0 + edge_9_16_0_0 + edge_10_16_0_0 + edge_11_16_0_0
   + edge_12_16_0_0 + edge_14_16_0_0 + edge_17_16_0_0 = 1
 consume_one_flow_unit_16: flow_0_16_0_0 + flow_2_16_0_0 + flow_5_16_0_0
   + flow_8_16_0_0 + flow_9_16_0_0 + flow_10_16_0_0 + flow_11_16_0_0
   + flow_12_16_0_0 + flow_14_16_0_0 - flow_16_2_0_0 - flow_16_3_0_0
   - flow_16_5_0_0 - flow_16_7_0_0 - flow_16_8_0_0 - flow_16_9_0_0
   - flow_16_10_0_0 - flow_16_11_0_0 - flow_16_12_0_0 - flow_16_14_0_0
   - flow_16_17_0_0 + flow_17_16_0_0 = 1
 one_parent_17: edge_2_17_0_0 + edge_5_17_0_0 + edge_7_17_0_0
   + edge_8_17_0_0 + edge_9_17_0_0 + edge_10_17_0_0 + edge_11_17_0_0
   + edge_12_17_0_0 + edge_14_17_0_0 + edge_16_17_0_0 = 1
 consume_one_flow_unit_17: flow_2_17_0_0 + flow_5_17_0_0 + flow_7_17_0_0
   + flow_8_17_0_0 + flow_9_17_0_0 + flow_10_17_0_0 + flow_11_17_0_0
   + flow_12_17_0_0 + flow_14_17_0_0 + flow_16_17_0_0 - flow_17_10_0_0
   - flow_17_14_0_0 - flow_17_16_0_0 = 1
 root_flow: flow_0_2_0_0 + flow_0_3_0_0 + flow_0_5_0_0 + flow_0_7_0_0
   + flow_0_8_0_0 + flow_0_9_0_0 + flow_0_12_0_0 + flow_0_14_0_0
   + flow_0_16_0_0 = 17
 inactive_no_flow_0_2_0_0: flow_0_2_0_0 - 1000 edge_0_2_0_0 <= 0
 inactive_no_flow_0_3_0_0: flow_0_3_0_0 - 1000 edge_0_3_0_0 <= 0
 inactive_no_flow_0_5_0_0: flow_0_5_0_0 - 1000 edge_0_5_0_0 <= 0
 inactive_no_flow_0_7_0_0: flow_0_7_0_0 - 1000 edge_0_7_0_0 <= 0
 inactive_no_flow_0_8_0_0: flow_0_8_0_0 - 1000 edge_0_8_0_0 <= 0
 inactive_no_flow_0_9_0_0: flow_0_9_0_0 - 1000 edge_0_9_0_0 <= 0
 inactive_no_flow_0_12_0_0: flow_0_12_0_0 - 1000 edge_0_12_0_0 <= 0
 inactive_no_flow_0_14_0_0: flow_0_14_0_0 - 1000 edge_0_14_0_0 <= 0
 inactive_no_flow_0_16_0_0: flow_0_16_0_0 - 1000 edge_0_16_0_0 <= 0
 inactive_no_flow_2_3_0_0: flow_2_3_0_0 - 1000 edge_2_3_0_0 <= 0
 inactive_no_flow_2_5_0_0: flow_2_5_0_0 - 1000 edge_2_5_0_0 <= 0
 inactive_no_flow_2_7_0_0: flow_2_7_0_0 - 1000 edge_2_7_0_0 <= 0
 inactive_no_flow_2_8_0_0: flow_2_8_0_0 - 1000 edge_2_8_0_0 <= 0
 inactive_no_flow_2_9_0_0: flow_2_9_0_0 - 1000 edge_2_9_0_0 <= 0
 inactive_no_flow_2_10_0_0: flow_2_10_0_0 - 1000 edge_2_10_0_0 <= 0
 inactive_no_flow_2_11_0_0: flow_2_11_0_0 - 1000 edge_2_11_0_0 <= 0
 inactive_no_flow_2_12_0_0: flow_2_12_0_0 - 1000 edge_2_12_0_0 <= 0
 inactive_no_flow_2_14_0_0: flow_2_14_0_0 - 1000 edge_2_14_0_0 <= 0
 inactive_no_flow_2_16_0_0: flow_2_16_0_0 - 1000 edge_2_16_0_0 <= 0
 inactive_no_flow_2_17_0_0: flow_2_17_0_0 - 1000 edge_2_17_0_0 <= 0
 inactive_no_flow_3_2_0_0: flow_3_2_0_0 - 1000 edge_3_2_0_0 <= 0
 inactive_no_flow_3_5_0_0: flow_3_5_0_0 - 1000 edge_3_5_0_0 <= 0
 inactive_no_flow_3_7_0_0: flow_3_7_0_0 - 1000 edge_3_7_0_0 <= 0
 inactive_no_flow_3_8_0_0: flow_3_8_0_0 - 1000 edge_3_8_0_0 <= 0
 inactive_no_flow_5_2_0_0: flow_5_2_0_0 - 1000 edge_5_2_0_0 <= 0
 inactive_no_flow_5_3_0_0: flow_5_3_0_0 - 1000 edge_5_3_0_0 <= 0
 inactive_no_flow_5_7_0_0: flow_5_7_0_0 - 1000 edge_5_7_0_0 <= 0
 inactive_no_flow_5_8_0_0: flow_5_8_0_0 - 1000 edge_5_8_0_0 <= 0
 inactive_no_flow_5_9_0_0: flow_5_9_0_0 - 1000 edge_5_9_0_0 <= 0
 inactive_no_flow_5_10_0_0: flow_5_10_0_0 - 1000 edge_5_10_0_0 <= 0
 inactive_no_flow_5_11_0_0: flow_5_11_0_0 - 1000 edge_5_11_0_0 <= 0
 inactive_no_flow_5_12_0_0: flow_5_12_0_0 - 1000 edge_5_12_0_0 <= 0
 inactive_no_flow_5_14_0_0: flow_5_14_0_0 - 1000 edge_5_14_0_0 <= 0
 inactive_no_flow_5_16_0_0: flow_5_16_0_0 - 1000 edge_5_16_0_0 <= 0
 inactive_no_flow_5_17_0_0: flow_5_17_0_0 - 1000 edge_5_17_0_0 <= 0
 inactive_no_flow_7_2_0_0: flow_7_2_0_0 - 1000 edge_7_2_0_0 <= 0
 inactive_no_flow_7_3_0_0: flow_7_3_0_0 - 1000 edge_7_3_0_0 <= 0
 inactive_no_flow_7_5_0_0: flow_7_5_0_0 - 1000 edge_7_5_0_0 <= 0
 inactive_no_flow_7_8_0_0: flow_7_8_0_0 - 1000 edge_7_8_0_0 <= 0
 inactive_no_flow_7_9_0_0: flow_7_9_0_0 - 1000 edge_7_9_0_0 <= 0
 inactive_no_flow_7_10_0_0: flow_7_10_0_0 - 1000 edge_7_10_0_0 <= 0
 inactive_no_flow_7_11_0_0: flow_7_11_0_0 - 1000 edge_7_11_0_0 <= 0
 inactive_no_flow_7_12_0_0: flow_7_12_0_0 - 1000 edge_7_12_0_0 <= 0
 inactive_no_flow_7_14_0_0: flow_7_14_0_0 - 1000 edge_7_14_0_0 <= 0
 inactive_no_flow_7_17_0_0: flow_7_17_0_0 - 1000 edge_7_17_0_0 <= 0
 inactive_no_flow_8_2_0_0: flow_8_2_0_0 - 1000 edge_8_2_0_0 <= 0
 inactive_no_flow_8_3_0_0: flow_8_3_0_0 - 1000 edge_8_3_0_0 <= 0
 inactive_no_flow_8_5_0_0: flow_8_5_0_0 - 1000 edge_8_5_0_0 <= 0
 inactive_no_flow_8_7_0_0: flow_8_7_0_0 - 1000 edge_8_7_0_0 <= 0
 inactive_no_flow_8_9_0_0: flow_8_9_0_0 - 1000 edge_8_9_0_0 <= 0
 inactive_no_flow_8_10_0_0: flow_8_10_0_0 - 1000 edge_8_10_0_0 <= 0
 inactive_no_flow_8_11_0_0: flow_8_11_0_0 - 1000 edge_8_11_0_0 <= 0
 inactive_no_flow_8_12_0_0: flow_8_12_0_0 - 1000 edge_8_12_0_0 <= 0
 inactive_no_flow_8_14_0_0: flow_8_14_0_0 - 1000 edge_8_14_0_0 <= 0
 inactive_no_flow_8_16_0_0: flow_8_16_0_0 - 1000 edge_8_16_0_0 <= 0
 inactive_no_flow_8_17_0_0: flow_8_17_0_0 - 1000 edge_8_17_0_0 <= 0
 inactive_no_flow_9_2_0_0: flow_9_2_0_0 - 1000 edge_9_2_0_0 <= 0
 inactive_no_flow_9_3_0_0: flow_9_3_0_0 - 1000 edge_9_3_0_0 <= 0
 inactive_no_flow_9_5_0_0: flow_9_5_0_0 - 1000 edge_9_5_0_0 <= 0
 inactive_no_flow_9_7_0_0: flow_9_7_0_0 - 1000 edge_9_7_0_0 <= 0
 inactive_no_flow_9_8_0_0: flow_9_8_0_0 - 1000 edge_9_8_0_0 <= 0
 inactive_no_flow_9_10_0_0: flow_9_10_0_0 - 1000 edge_9_10_0_0 <= 0
 inactive_no_flow_9_11_0_0: flow_9_11_0_0 - 1000 edge_9_11_0_0 <= 0
 inactive_no_flow_9_12_0_0: flow_9_12_0_0 - 1000 edge_9_12_0_0 <= 0
 inactive_no_flow_9_14_0_0: flow_9_14_0_0 - 1000 edge_9_14_0_0 <= 0
 inactive_no_flow_9_16_0_0: flow_9_16_0_0 - 1000 edge_9_16_0_0 <= 0
 inactive_no_flow_9_17_0_0: flow_9_17_0_0 - 1000 edge_9_17_0_0 <= 0
 inactive_no_flow_10_2_0_0: flow_10_2_0_0 - 1000 edge_10_2_0_0 <= 0
 inactive_no_flow_10_3_0_0: flow_10_3_0_0 - 1000 edge_10_3_0_0 <= 0
 inactive_no_flow_10_5_0_0: flow_10_5_0_0 - 1000 edge_10_5_0_0 <= 0
 inactive_no_flow_10_7_0_0: flow_10_7_0_0 - 1000 edge_10_7_0_0 <= 0
 inactive_no_flow_10_8_0_0: flow_10_8_0_0 - 1000 edge_10_8_0_0 <= 0
 inactive_no_flow_10_9_0_0: flow_10_9_0_0 - 1000 edge_10_9_0_0 <= 0
 inactive_no_flow_10_11_0_0: flow_10_11_0_0 - 1000 edge_10_11_0_0 <= 0
 inactive_no_flow_10_12_0_0: flow_10_12_0_0 - 1000 edge_10_12_0_0 <= 0
 inactive_no_flow_10_14_0_0: flow_10_14_0_0 - 1000 edge_10_14_0_0 <= 0
 inactive_no_flow_10_16_0_0: flow_10_16_0_0 - 1000 edge_10_16_0_0 <= 0
 inactive_no_flow_10_17_0_0: flow_10_17_0_0 - 1000 edge_10_17_0_0 <= 0
 inactive_no_flow_11_9_0_0: flow_11_9_0_0 - 1000 edge_11_9_0_0 <= 0
 inactive_no_flow_11_10_0_0: flow_11_10_0_0 - 1000 edge_11_10_0_0 <= 0
 inactive_no_flow_11_12_0_0: flow_11_12_0_0 - 1000 edge_11_12_0_0 <= 0
 inactive_no_flow_11_16_0_0: flow_11_16_0_0 - 1000 edge_11_16_0_0 <= 0
 inactive_no_flow_11_17_0_0: flow_11_17_0_0 - 1000 edge_11_17_0_0 <= 0
 inactive_no_flow_12_2_0_0: flow_12_2_0_0 - 1000 edge_12_2_0_0 <= 0
 inactive_no_flow_12_3_0_0: flow_12_3_0_0 - 1000 edge_12_3_0_0 <= 0
 inactive_no_flow_12_5_0_0: flow_12_5_0_0 - 1000 edge_12_5_0_0 <= 0
 inactive_no_flow_12_7_0_0: flow_12_7_0_0 - 1000 edge_12_7_0_0 <= 0
 inactive_no_flow_12_8_0_0: flow_12_8_0_0 - 1000 edge_12_8_0_0 <= 0
 inactive_no_flow_12_9_0_0: flow_12_9_0_0 - 1000 edge_12_9_0_0 <= 0
 inactive_no_flow_12_10_0_0: flow_12_10_0_0 - 1000 edge_12_10_0_0 <= 0
 inactive_no_flow_12_11_0_0: flow_12_11_0_0 - 1000 edge_12_11_0_0 <= 0
 inactive_no_flow_12_14_0_0: flow_12_14_0_0 - 1000 edge_12_14_0_0 <= 0
 inactive_no_flow_12_16_0_0: flow_12_16_0_0 - 1000 edge_12_16_0_0 <= 0
 inactive_no_flow_12_17_0_0: flow_12_17_0_0 - 1000 edge_12_17_0_0 <= 0
 inactive_no_flow_14_2_0_0: flow_14_2_0_0 - 1000 edge_14_2_0_0 <= 0
 inactive_no_flow_14_3_0_0: flow_14_3_0_0 - 1000 edge_14_3_0_0 <= 0
 inactive_no_flow_14_5_0_0: flow_14_5_0_0 - 1000 edge_14_5_0_0 <= 0
 inactive_no_flow_14_7_0_0: flow_14_7_0_0 - 1000 edge_14_7_0_0 <= 0
 inactive_no_flow_14_8_0_0: flow_14_8_0_0 - 1000 edge_14_8_0_0 <= 0
 inactive_no_flow_14_9_0_0: flow_14_9_0_0 - 1000 edge_14_9_0_0 <= 0
 inactive_no_flow_14_10_0_0: flow_14_10_0_0 - 1000 edge_14_10_0_0 <= 0
 inactive_no_flow_14_11_0_0: flow_14_11_0_0 - 1000 edge_14_11_0_0 <= 0
 inactive_no_flow_14_12_0_0: flow_14_12_0_0 - 1000 edge_14_12_0_0 <= 0
 inactive_no_flow_14_16_0_0: flow_14_16_0_0 - 1000 edge_14_16_0_0 <= 0
 inactive_no_flow_14_17_0_0: flow_14_17_0_0 - 1000 edge_14_17_0_0 <= 0
 inactive_no_flow_16_2_0_0: flow_16_2_0_0 - 1000 edge_16_2_0_0 <= 0
 inactive_no_flow_16_3_0_0: flow_16_3_0_0 - 1000 edge_16_3_0_0 <= 0
 inactive_no_flow_16_5_0_0: flow_16_5_0_0 - 1000 edge_16_5_0_0 <= 0
 inactive_no_flow_16_7_0_0: flow_16_7_0_0 - 1000 edge_16_7_0_0 <= 0
 inactive_no_flow_16_8_0_0: flow_16_8_0_0 - 1000 edge_16_8_0_0 <= 0
 inactive_no_flow_16_9_0_0: flow_16_9_0_0 - 1000 edge_16_9_0_0 <= 0
 inactive_no_flow_16_10_0_0: flow_16_10_0_0 - 1000 edge_16_10_0_0 <= 0
 inactive_no_flow_16_11_0_0: flow_16_11_0_0 - 1000 edge_16_11_0_0 <= 0
 inactive_no_flow_16_12_0_0: flow_16_12_0_0 - 1000 edge_16_12_0_0 <= 0
 inactive_no_flow_16_14_0_0: flow_16_14_0_0 - 1000 edge_16_14_0_0 <= 0
 inactive_no_flow_16_17_0_0: flow_16_17_0_0 - 1000 edge_16_17_0_0 <= 0
 inactive_no_flow_17_10_0_0: flow_17_10_0_0 - 1000 edge_17_10_0_0 <= 0
 inactive_no_flow_17_14_0_0: flow_17_14_0_0 - 1000 edge_17_14_0_0 <= 0
 inactive_no_flow_17_16_0_0: flow_17_16_0_0 - 1000 edge_17_16_0_0 <= 0
Bounds
Binaries
 edge_0_2_0_0 edge_0_3_0_0 edge_0_5_0_0 edge_0_7_0_0 edge_0_8_0_0
 edge_0_9_0_0 edge_0_12_0_0 edge_0_14_0_0 edge_0_16_0_0 edge_2_3_0_0
 edge_2_5_0_0 edge_2_7_0_0 edge_2_8_0_0 edge_2_9_0_0 edge_2_10_0_0
 edge_2_11_0_0 edge_2_12_0_0 edge_2_14_0_0 edge_2_16_0_0 edge_2_17_0_0
 edge_3_2_0_0 edge_3_5_0_0 edge_3_7_0_0 edge_3_8_0_0 edge_5_2_0_0
 edge_5_3_0_0 edge_5_7_0_0 edge_5_8_0_0 edge_5_9_0_0 edge_5_10_0_0
 edge_5_11_0_0 edge_5_12_0_0 edge_5_14_0_0 edge_5_16_0_0 edge_5_17_0_0
 edge_7_2_0_0 edge_7_3_0_0 edge_7_5_0_0 edge_7_8_0_0 edge_7_9_0_0
 edge_7_10_0_0 edge_7_11_0_0 edge_7_12_0_0 edge_7_14_0_0 edge_7_17_0_0
 edge_8_2_0_0 edge_8_3_0_0 edge_8_5_0_0 edge_8_7_0_0 edge_8_9_0_0
 edge_8_10_0_0 edge_8_11_0_0 edge_8_12_0_0 edge_8_14_0_0 edge_8_16_0_0
 edge_8_17_0_0 edge_9_2_0_0 edge_9_3_0_0 edge_9_5_0_0 edge_9_7_0_0
 edge_9_8_0_0 edge_9_10_0_0 edge_9_11_0_0 edge_9_12_0_0 edge_9_14_0_0
 edge_9_16_0_0 edge_9_17_0_0 edge_10_2_0_0 edge_10_3_0_0 edge_10_5_0_0
 edge_10_7_0_0 edge_10_8_0_0 edge_10_9_0_0 edge_10_11_0_0 edge_10_12_0_0
 edge_10_14_0_0 edge_10_16_0_0 edge_10_17_0_0 edge_11_9_0_0 edge_11_10_0_0
 edge_11_12_0_0 edge_11_16_0_0 edge_11_17_0_0 edge_12_2_0_0 edge_12_3_0_0
 edge_12_5_0_0 edge_12_7_0_0 edge_12_8_0_0 edge_12_9_0_0 edge_12_10_0_0
 edge_12_11_0_0 edge_12_14_0_0 edge_12_16_0_0 edge_12_17_0_0 edge_14_2_0_0
 edge_14_3_0_0 edge_14_5_0_0 edge_14_7_0_0 edge_14_8_0_0 edge_14_9_0_0
 edge_14_10_0_0 edge_14_11_0_0 edge_14_12_0_0 edge_14_16_0_0 edge_14_17_0_0
 edge_16_2_0_0 edge_16_3_0_0 edge_16_5_0_0 edge_16_7_0_0 edge_16_8_0_0
 edge_16_9_0_0 edge_16_10_0_0 edge_16_11_0_0 edge_16_12_0_0 edge_16_14_0_0
 edge_16_17_0_0 edge_17_10_0_0 edge_17_14_0_0 edge_17_16_0_0
End
